Set parameter TSPort to value 51199
Set parameter TokenServer to value "open-license1.lanl.gov"
Set parameter TimeLimit to value 8192
Set parameter Threads to value 1
Gurobi Optimizer version 10.0.3 build v10.0.3rc0 (linux64)

CPU model: Intel(R) Xeon(R) CPU E5-2695 v4 @ 2.10GHz, instruction set [SSE2|AVX|AVX2]
Thread count: 36 physical cores, 72 logical processors, using up to 1 threads

Optimize a model with 0 rows, 4046 columns and 0 nonzeros
Model fingerprint: 0x1563773a
Model has 18819 quadratic objective terms
Variable types: 0 continuous, 4046 integer (4046 binary)
Coefficient statistics:
  Matrix range     [0e+00, 0e+00]
  Objective range  [2e+00, 3e+01]
  QObjective range [8e+00, 8e+00]
  Bounds range     [1e+00, 1e+00]
  RHS range        [0e+00, 0e+00]
Found heuristic solution: objective 0.0000000
Found heuristic solution: objective -6866.000000
Found heuristic solution: objective -25104.00000
Found heuristic solution: objective -25206.00000
Presolve removed 0 rows and 2 columns
Presolve time: 0.50s
Presolved: 18816 rows, 22860 columns, 56448 nonzeros
Variable types: 0 continuous, 22860 integer (22860 binary)

Root relaxation: objective -3.529700e+04, 5702 iterations, 0.09 seconds (0.04 work units)

    Nodes    |    Current Node    |     Objective Bounds      |     Work
 Expl Unexpl |  Obj  Depth IntInf | Incumbent    BestBd   Gap | It/Node Time

     0     0 -35297.000    0 4044 -25206.000 -35297.000  40.0%     -    1s
     0     0 -33345.000    0 4961 -25206.000 -33345.000  32.3%     -    1s
     0     0 -32814.000    0 5281 -25206.000 -32814.000  30.2%     -    2s
     0     0 -32804.000    0 5290 -25206.000 -32804.000  30.1%     -    2s
     0     0 -32365.250    0 5605 -25206.000 -32365.250  28.4%     -    3s
     0     0 -32365.250    0 5524 -25206.000 -32365.250  28.4%     -    4s
     0     2 -32365.250    0 5515 -25206.000 -32365.250  28.4%     -    5s
   162   164 -31604.250   81 6199 -25206.000 -32352.750  28.4%   111   10s
   351   353 -30777.250  176 6722 -25206.000 -32352.750  28.4%   100   15s
   539   541 -29993.250  270 7217 -25206.000 -32352.750  28.4%  88.2   20s
   606   608 -29741.250  303 7350 -25206.000 -32352.750  28.4%  86.9   26s
   734   736 -29277.750  367 7468 -25206.000 -32352.750  28.4%  84.8   30s
   827   829 -28951.750  414 7551 -25206.000 -32352.750  28.4%  82.6   35s
   924   926 -28630.750  462 7631 -25206.000 -32352.750  28.4%  81.3   40s
  1153  1155 -27855.500  577 7797 -25206.000 -32352.750  28.4%  77.8   45s
H 1196  1196                    -25208.00000 -32352.750  28.3%  76.9   45s
H 1222  1222                    -25214.00000 -32352.750  28.3%  76.5   46s
H 1326  1326                    -25216.00000 -32352.750  28.3%  74.6   48s
H 1352  1352                    -25220.00000 -32352.750  28.3%  74.2   49s
  1389  1391 -27128.500  695 7950 -25220.000 -32352.750  28.3%  73.4   50s
H 1404  1404                    -25230.00000 -32352.750  28.2%  73.1   50s
H 1430  1430                    -25234.00000 -32352.750  28.2%  72.7   50s
H 1456  1456                    -25238.00000 -32352.750  28.2%  72.1   51s
H 1482  1482                    -25244.00000 -32352.750  28.2%  71.5   52s
H 1508  1508                    -25258.00000 -32352.750  28.1%  71.0   52s
H 1534  1534                    -25262.00000 -32352.750  28.1%  70.5   53s
H 1560  1560                    -25266.00000 -32352.750  28.0%  70.0   53s
H 1586  1586                    -25286.00000 -32352.750  27.9%  69.4   54s
H 1612  1612                    -25316.00000 -32352.750  27.8%  69.1   54s
  1614  1616 -26625.500  809 7860 -25316.000 -32352.750  27.8%  69.1   55s
H 1638  1638                    -25346.00000 -32352.750  27.6%  68.8   55s
H 1664  1664                    -25368.00000 -32352.750  27.5%  68.6   56s
H 1690  1690                    -25402.00000 -32352.750  27.4%  68.4   56s
H 1716  1716                    -25422.00000 -32352.750  27.3%  68.1   57s
H 1742  1742                    -25432.00000 -32352.750  27.2%  67.8   58s
H 1768  1768                    -25452.00000 -32352.750  27.1%  67.6   58s
H 1794  1794                    -25466.00000 -32352.750  27.0%  67.2   59s
  1813  1815 -26071.000  909 7812 -25466.000 -32352.750  27.0%  67.4   60s
H 1820  1820                    -25486.00000 -32352.750  26.9%  67.3   60s
H 1846  1846                    -25504.00000 -32352.750  26.9%  67.1   61s
H 1872  1872                    -25536.00000 -32352.750  26.7%  66.8   61s
H 1898  1898                    -25566.00000 -32352.750  26.5%  66.6   65s
H 1924  1924                    -25586.00000 -32352.750  26.4%  66.3   66s
H 1950  1950                    -25604.00000 -32352.750  26.4%  66.0   68s
  2008  2010 -25665.500 1008 7523 -25604.000 -32352.750  26.4%  65.1   70s
  2106  2044 -27246.500  675 9408 -25604.000 -32352.750  26.4%  63.4   75s
  2110  2047 -28636.750  462 5687 -25604.000 -32064.000  25.2%  63.3   80s
  2114  2049 -30765.500  160 6746 -25604.000 -30765.500  20.2%  63.2   85s
  2120  2053 -26444.500  842 7396 -25604.000 -30193.571  17.9%  63.0   99s
  2121  2054 -30033.339  252 8095 -25604.000 -30033.339  17.3%  63.0  116s
  2122  2055 -27614.500  614 8404 -25604.000 -29965.608  17.0%  62.9  142s
  2123  2055 -29950.453  126 8629 -25604.000 -29950.453  17.0%  62.9  153s
  2124  2056 -29945.877  229 8619 -25604.000 -29945.877  17.0%  62.9  160s
  2126  2057 -28436.000  490 8822 -25604.000 -29942.461  16.9%  62.8  167s
  2130  2060 -28875.750  426 8999 -25604.000 -29941.777  16.9%  62.7  170s
  2134  2063 -29232.750  375 9241 -25604.000 -29542.595  15.4%  62.6  278s
  2135  2063 -29003.750  406 9704 -25604.000 -29434.130  15.0%  62.5  375s
  2136  2064 -29374.654   70 10117 -25604.000 -29374.654  14.7%  62.5  466s
  2137  2065 -29358.521  172 10417 -25604.000 -29358.521  14.7%  62.5  495s
  2138  2065 -26190.000  887 10619 -25604.000 -29353.316  14.6%  62.5  510s
  2139  2066 -27576.500  621 10763 -25604.000 -29350.284  14.6%  62.4  523s
  2140  2067 -29219.750  378 10857 -25604.000 -29349.595  14.6%  62.4  529s
  2141  2067 -26806.500  764 10919 -25604.000 -29349.182  14.6%  62.4  533s
  2142  2068 -25704.500  998 10929 -25604.000 -29348.729  14.6%  62.3  537s
  2143  2069 -29348.448  274 10978 -25604.000 -29348.448  14.6%  62.3  540s
  2147  2071 -29348.372   36 11015 -25604.000 -29348.372  14.6%  62.2  545s
  2148  2072 -29034.356  143 11364 -25604.000 -29034.356  13.4%  62.2  768s
  2149  2073 -28214.500  524 11701 -25604.000 -28966.107  13.1%  62.1  945s
  2150  2073 -26679.500  798 11974 -25604.000 -28915.159  12.9%  62.1 1102s
  2151  2074 -27514.500  631 12404 -25604.000 -28894.231  12.9%  62.1 1180s
  2152  2075 -25864.000  954 12710 -25604.000 -28886.479  12.8%  62.1 1228s
  2153  2075 -28883.945   42 12699 -25604.000 -28883.945  12.8%  62.0 1253s
  2154  2076 -25747.500  985 12785 -25604.000 -28882.807  12.8%  62.0 1269s
  2155  2077 -28768.750  444 12845 -25604.000 -28882.038  12.8%  62.0 1281s
  2156  2077 -27736.500  596 12930 -25604.000 -28881.766  12.8%  61.9 1287s
  2157  2078 -25733.500  990 12915 -25604.000 -28881.644  12.8%  61.9 1292s
  2158  2079 -28881.505  166 12926 -25604.000 -28881.505  12.8%  61.9 1296s
  2159  2079 -28881.377  159 12935 -25604.000 -28881.377  12.8%  61.9 1300s
  2162  2081 -26868.500  749 13033 -25604.000 -28881.345  12.8%  61.8 1306s
  2163  2082 -27610.500  615 13450 -25604.000 -28633.595  11.8%  61.7 1664s
  2164  2083 -28582.866  119 13832 -25604.000 -28582.866  11.6%  61.7 1906s
  2165  2083 -28541.040  353 14320 -25604.000 -28541.040  11.5%  61.7 2129s
  2166  2084 -25824.000  965 14563 -25604.000 -28526.906  11.4%  61.7 2242s
  2167  2085 -28521.754  264 14857 -25604.000 -28521.754  11.4%  61.6 2300s
  2168  2085 -28519.009  260 14925 -25604.000 -28519.009  11.4%  61.6 2338s
  2169  2086 -28275.500  515 15060 -25604.000 -28517.970  11.4%  61.6 2361s
  2170  2087 -28517.549  233 15112 -25604.000 -28517.549  11.4%  61.5 2374s
  2171  2087 -26545.500  824 15132 -25604.000 -28517.339  11.4%  61.5 2382s
  2172  2088 -28517.201  156 15185 -25604.000 -28517.201  11.4%  61.5 2390s
  2174  2089 -28517.123  446 15217 -25604.000 -28517.123  11.4%  61.4 2396s
  2177  2091 -25624.500 1026 15236 -25604.000 -28517.108  11.4%  61.3 2404s
  2178  2092 -28327.890   90 15702 -25604.000 -28327.890  10.6%  61.3 2938s
  2179  2093 -26537.500  826 16156 -25604.000 -28296.671  10.5%  61.3 3216s
  2180  2093 -28264.241  209 16505 -25604.000 -28264.241  10.4%  61.3 3497s
  2181  2094 -28255.544  187 16887 -25604.000 -28255.544  10.4%  61.2 3621s
  2182  2095 -25673.500 1007 16920 -25604.000 -28253.547  10.3%  61.2 3669s
  2183  2095 -27038.500  711 16989 -25604.000 -28252.827  10.3%  61.2 3695s
  2184  2096 -28252.537   49 17115 -25604.000 -28252.537  10.3%  61.1 3710s
  2185  2097 -28252.424   51 17056 -25604.000 -28252.424  10.3%  61.1 3719s
  2186  2097 -26568.500  820 17102 -25604.000 -28252.391  10.3%  61.1 3723s
  2187  2098 -26197.000  886 17139 -25604.000 -28252.371  10.3%  61.1 3726s
  2189  2099 -28252.363   88 17133 -25604.000 -28252.363  10.3%  61.0 3732s
  2190  2100 -27736.500  596 17096 -25604.000 -28139.943  9.90%  61.0 4225s
  2191  2101 -28119.877  128 17544 -25604.000 -28119.877  9.83%  60.9 4462s
  2192  2101 -27647.500  608 17821 -25604.000 -28114.669  9.81%  60.9 4571s
  2193  2102 -26700.500  795 17940 -25604.000 -28113.383  9.80%  60.9 4611s
  2194  2103 -28112.783   25 17966 -25604.000 -28112.783  9.80%  60.9 4635s
  2195  2103 -28112.503  416 17994 -25604.000 -28112.503  9.80%  60.8 4652s
  2196  2104 -27053.500  708 17968 -25604.000 -28112.428  9.80%  60.8 4660s
  2197  2105 -26151.000  896 17957 -25604.000 -28112.393  9.80%  60.8 4665s
  2199  2106 -25909.000  941 17986 -25604.000 -28112.378  9.80%  60.7 4671s
  2200  2107 -26718.500  793 17918 -25604.000 -28027.179  9.46%  60.7 5213s
  2201  2107 -28010.274   40 18281 -25604.000 -28010.274  9.40%  60.7 5496s
  2202  2108 -28006.557  455 18447 -25604.000 -28006.557  9.38%  60.6 5602s
  2203  2109 -28005.582  409 18564 -25604.000 -28005.582  9.38%  60.6 5643s
  2204  2109 -27371.000  656 18531 -25604.000 -28005.011  9.38%  60.6 5679s
  2205  2110 -25733.500  991 18590 -25604.000 -28004.880  9.38%  60.6 5691s
  2206  2111 -27246.500  675 18665 -25604.000 -28004.840  9.38%  60.5 5699s
  2207  2111 -26243.000  878 18635 -25604.000 -28004.824  9.38%  60.5 5704s
  2208  2112 -28004.806  189 18626 -25604.000 -28004.806  9.38%  60.5 5708s
  2209  2113 -28004.801  269 18625 -25604.000 -28004.801  9.38%  60.5 5713s
  2210  2113 -27926.300  462 18587 -25604.000 -27926.300  9.07%  60.4 6276s
  2211  2114 -27910.351    3 18845 -25604.000 -27910.351  9.01%  60.4 6588s
  2212  2115 -27907.093  232 18930 -25604.000 -27907.093  9.00%  60.4 6697s
  2213  2115 -27032.500  713 18989 -25604.000 -27906.208  8.99%  60.3 6759s
  2214  2116 -27905.927  160 19016 -25604.000 -27905.927  8.99%  60.3 6790s
  2215  2117 -27905.817  521 19062 -25604.000 -27905.817  8.99%  60.3 6802s
  2216  2117 -26749.500  780 19061 -25604.000 -27905.770  8.99%  60.3 6811s
  2217  2118 -27905.755  444 19075 -25604.000 -27905.755  8.99%  60.2 6816s
  2218  2119 -26262.000  874 19081 -25604.000 -27905.750  8.99%  60.2 6823s
  2219  2119 -27850.870  242 19036 -25604.000 -27850.870  8.78%  60.2 7396s
  2220  2120 -26444.500  842 19167 -25604.000 -27840.081  8.73%  60.2 7670s
  2221  2121 -27837.841  252 19202 -25604.000 -27837.841  8.72%  60.1 7779s
  2222  2121 -27614.500  614 19292 -25604.000 -27837.255  8.72%  60.1 7817s
  2223  2122 -27836.998  126 19298 -25604.000 -27836.998  8.72%  60.1 7844s
  2224  2123 -27836.866  229 19338 -25604.000 -27836.866  8.72%  60.0 7857s
  2225  2123 -27836.834  514 19380 -25604.000 -27836.834  8.72%  60.0 7863s
  2226  2124 -27836.824  490 19378 -25604.000 -27836.824  8.72%  60.0 7867s
  2227  2125 -27332.500  662 19385 -25604.000 -27836.820  8.72%  60.0 7874s

Cutting planes:
  Gomory: 166
  MIR: 702
  Flow cover: 6781
  Zero half: 2217
  Mod-K: 127
  RLT: 835
  BQP: 1147

Explored 2227 nodes (3354285 simplex iterations) in 8192.00 seconds (12920.75 work units)
Thread count was 1 (of 72 available processors)

Solution count 10: -25604 -25586 -25566 ... -25422

Time limit reached
Best objective -2.560400000000e+04, best bound -2.783600000000e+04, gap 8.7174%

User-callback calls 24077, time in user-callback 0.12 sec

BQP_SOLUTION, 4046, 18819, -9126.000000, 8192.002217, 1, -1, 1, 1, 1, 1, -1, 1, 1, -1, -1, 1, -1, 1, -1, 1, -1, 1, -1, -1, -1, 1, 1, -1, 1, -1, 1, -1, -1, 1, -1, -1, 1, -1, 1, 1, -1, 1, -1, 1, -1, -1, 1, 1, 1, -1, 1, -1, 1, -1, -1, -1, 1, -1, -1, 1, 1, 1, -1, -1, -1, 1, -1, 1, 1, 1, -1, 1, -1, -1, 1, -1, -1, 1, 1, -1, -1, -1, 1, -1, -1, -1, -1, 1, -1, -1, 1, -1, -1, 1, -1, 1, -1, -1, 1, -1, -1, 1, -1, 1, 1, -1, -1, -1, -1, 1, -1, 1, -1, 1, -1, 1, -1, 1, 1, -1, 1, 1, -1, -1, -1, -1, 1, -1, -1, 1, 1, 1, -1, -1, 1, -1, -1, -1, -1, -1, 1, -1, -1, 1, 1, -1, -1, 1, -1, -1, 1, -1, 1, -1, -1, -1, 1, -1, -1, -1, -1, 1, -1, -1, -1, 1, -1, -1, 1, -1, -1, -1, -1, 1, -1, -1, -1, -1, 1, -1, -1, 1, 1, -1, -1, 1, -1, -1, -1, -1, -1, 1, -1, 1, -1, -1, 1, -1, 1, -1, -1, -1, -1, -1, 1, -1, -1, 1, -1, -1, -1, -1, 1, -1, -1, -1, -1, 1, -1, 1, -1, -1, 1, -1, -1, -1, 1, -1, 1, -1, 1, 1, -1, 1, -1, 1, -1, 1, 1, -1, -1, -1, -1, -1, -1, 1, -1, -1, -1, -1, 1, -1, -1, -1, -1, 1, 1, -1, 1, -1, -1, -1, 1, 1, 1, -1, 1, -1, -1, 1, -1, -1, -1, -1, -1, -1, 1, 1, -1, -1, 1, -1, 1, -1, 1, 1, 1, -1, 1, 1, -1, 1, -1, 1, 1, 1, 1, 1, 1, -1, -1, -1, 1, 1, -1, 1, -1, 1, 1, -1, 1, 1, -1, -1, -1, 1, 1, -1, 1, 1, -1, 1, 1, 1, -1, -1, -1, 1, 1, 1, -1, 1, -1, 1, 1, -1, 1, -1, -1, -1, -1, 1, 1, -1, 1, -1, 1, 1, 1, 1, -1, -1, -1, -1, 1, 1, -1, 1, 1, 1, -1, 1, 1, -1, -1, -1, 1, 1, 1, -1, 1, 1, 1, -1, -1, 1, -1, -1, -1, -1, 1, 1, -1, -1, 1, 1, 1, -1, 1, 1, -1, -1, 1, 1, -1, 1, 1, 1, 1, -1, 1, 1, 1, -1, 1, -1, 1, 1, 1, 1, 1, 1, -1, 1, 1, -1, 1, -1, -1, 1, 1, 1, 1, -1, -1, 1, -1, 1, -1, -1, -1, 1, 1, 1, -1, 1, 1, -1, 1, 1, 1, -1, -1, -1, -1, -1, 1, 1, -1, 1, 1, -1, -1, 1, 1, -1, -1, -1, 1, 1, 1, 1, 1, -1, -1, -1, 1, 1, -1, -1, 1, 1, 1, 1, 1, 1, -1, 1, -1, 1, -1, -1, -1, 1, 1, 1, 1, 1, 1, -1, -1, -1, 1, 1, -1, 1, -1, 1, 1, -1, 1, 1, -1, 1, -1, -1, 1, -1, -1, -1, -1, 1, 1, 1, -1, -1, 1, -1, 1, 1, -1, -1, -1, -1, 1, 1, 1, -1, 1, 1, -1, 1, 1, -1, -1, -1, -1, 1, 1, 1, 1, -1, -1, -1, 1, 1, -1, -1, -1, -1, 1, -1, 1, 1, 1, -1, -1, 1, 1, -1, -1, -1, -1, -1, -1, 1, 1, 1, -1, 1, -1, 1, 1, -1, 1, -1, -1, -1, -1, 1, 1, 1, -1, 1, -1, 1, -1, -1, -1, 1, 1, -1, 1, 1, -1, -1, -1, 1, 1, 1, -1, -1, -1, 1, -1, 1, 1, 1, -1, 1, -1, 1, -1, -1, 1, -1, 1, -1, 1, -1, 1, -1, 1, 1, 1, -1, -1, -1, -1, -1, 1, 1, 1, -1, -1, 1, 1, 1, 1, 1, -1, 1, -1, 1, 1, 1, -1, -1, 1, -1, 1, -1, -1, -1, 1, -1, 1, 1, 1, -1, -1, 1, 1, -1, 1, -1, -1, -1, -1, 1, 1, 1, -1, -1, 1, 1, 1, -1, 1, -1, -1, -1, -1, 1, 1, -1, -1, -1, 1, 1, -1, 1, -1, -1, -1, 1, 1, 1, -1, -1, 1, 1, -1, 1, 1, 1, -1, -1, 1, 1, 1, -1, -1, -1, 1, 1, -1, 1, 1, -1, -1, 1, 1, 1, 1, 1, 1, 1, 1, 1, 1, 1, -1, -1, 1, 1, 1, 1, -1, -1, 1, 1, -1, -1, -1, -1, -1, 1, 1, 1, -1, -1, 1, -1, -1, 1, -1, 1, -1, -1, -1, 1, 1, 1, -1, -1, -1, -1, 1, -1, 1, -1, -1, 1, 1, 1, 1, -1, -1, 1, 1, -1, -1, -1, -1, -1, 1, 1, 1, -1, -1, 1, -1, 1, -1, 1, 1, -1, -1, 1, 1, -1, -1, -1, -1, 1, -1, -1, 1, -1, -1, 1, 1, 1, 1, -1, -1, -1, -1, 1, -1, 1, 1, -1, -1, 1, 1, 1, -1, -1, -1, -1, 1, -1, -1, -1, -1, 1, 1, 1, 1, 1, -1, -1, -1, 1, 1, -1, 1, -1, -1, -1, 1, 1, -1, -1, -1, -1, -1, -1, -1, -1, -1, -1, -1, 1, -1, 1, 1, -1, -1, -1, -1, 1, -1, -1, 1, -1, -1, 1, -1, 1, -1, -1, 1, -1, -1, 1, -1, -1, -1, 1, 1, 1, -1, -1, -1, 1, -1, 1, -1, -1, -1, 1, -1, 1, -1, -1, -1, -1, 1, 1, -1, 1, -1, -1, -1, -1, -1, -1, -1, -1, -1, 1, -1, 1, -1, -1, -1, 1, -1, -1, 1, -1, 1, -1, 1, 1, 1, -1, -1, 1, -1, -1, -1, 1, -1, -1, 1, 1, 1, 1, -1, -1, 1, -1, -1, 1, 1, -1, -1, 1, 1, 1, -1, -1, -1, 1, -1, -1, -1, 1, -1, -1, 1, -1, 1, -1, -1, -1, 1, -1, -1, 1, 1, -1, 1, 1, -1, 1, 1, -1, -1, -1, -1, -1, -1, 1, 1, -1, 1, 1, 1, -1, -1, -1, -1, -1, -1, -1, 1, 1, 1, -1, 1, -1, -1, -1, -1, 1, -1, -1, 1, -1, 1, 1, 1, 1, -1, -1, 1, 1, 1, 1, 1, 1, -1, -1, 1, -1, 1, -1, 1, -1, 1, 1, -1, -1, 1, -1, 1, 1, 1, 1, -1, -1, 1, -1, -1, -1, -1, 1, -1, 1, 1, -1, 1, -1, -1, -1, 1, -1, 1, 1, 1, -1, -1, 1, 1, 1, -1, 1, -1, 1, 1, 1, -1, 1, -1, 1, 1, -1, 1, -1, -1, 1, 1, 1, -1, 1, -1, -1, 1, -1, 1, -1, 1, -1, 1, 1, -1, 1, -1, 1, 1, 1, 1, -1, -1, -1, 1, 1, 1, 1, 1, 1, -1, 1, 1, 1, -1, 1, -1, 1, 1, 1, 1, 1, 1, -1, 1, -1, 1, -1, -1, -1, 1, 1, 1, 1, 1, 1, -1, 1, 1, 1, 1, -1, -1, 1, 1, 1, 1, 1, 1, 1, 1, 1, 1, 1, -1, -1, -1, 1, 1, 1, 1, 1, 1, -1, 1, 1, -1, 1, -1, 1, 1, 1, 1, 1, 1, -1, 1, 1, 1, -1, 1, -1, 1, 1, -1, 1, 1, 1, 1, 1, 1, -1, 1, -1, -1, -1, 1, 1, 1, 1, 1, -1, -1, 1, 1, 1, 1, -1, 1, 1, 1, -1, 1, 1, -1, -1, -1, 1, -1, 1, -1, 1, 1, -1, 1, 1, 1, 1, 1, -1, 1, 1, 1, 1, 1, 1, 1, 1, 1, 1, -1, 1, 1, 1, 1, 1, -1, 1, 1, -1, 1, 1, 1, -1, 1, 1, 1, 1, 1, -1, 1, 1, -1, 1, 1, 1, -1, -1, -1, 1, 1, 1, -1, 1, 1, -1, 1, 1, 1, 1, -1, 1, 1, 1, 1, -1, -1, 1, -1, -1, 1, 1, 1, -1, 1, 1, 1, 1, 1, 1, 1, -1, 1, 1, 1, 1, -1, 1, -1, 1, 1, 1, 1, -1, 1, -1, 1, -1, 1, -1, 1, -1, 1, 1, 1, 1, 1, -1, -1, 1, 1, 1, -1, 1, 1, 1, 1, 1, -1, 1, -1, -1, 1, 1, 1, -1, 1, 1, -1, 1, 1, -1, 1, 1, -1, 1, 1, 1, 1, -1, 1, 1, 1, 1, -1, 1, -1, -1, 1, 1, 1, 1, 1, -1, 1, -1, 1, -1, 1, -1, -1, 1, 1, 1, 1, -1, 1, 1, -1, 1, 1, -1, -1, -1, 1, 1, 1, 1, -1, 1, 1, -1, -1, 1, -1, 1, -1, 1, 1, 1, -1, 1, -1, -1, -1, -1, -1, 1, -1, -1, 1, 1, 1, 1, -1, 1, -1, -1, -1, 1, 1, -1, -1, 1, 1, 1, 1, -1, 1, -1, -1, 1, -1, 1, -1, -1, -1, 1, 1, 1, -1, -1, -1, -1, 1, -1, 1, 1, -1, 1, 1, -1, 1, -1, -1, -1, -1, -1, -1, 1, -1, -1, 1, 1, 1, 1, -1, 1, -1, 1, -1, -1, -1, 1, -1, -1, 1, 1, -1, 1, -1, 1, -1, -1, -1, 1, -1, 1, -1, -1, 1, -1, 1, -1, 1, -1, -1, 1, -1, 1, -1, -1, 1, 1, 1, -1, 1, -1, -1, -1, -1, -1, 1, 1, -1, 1, 1, 1, 1, -1, 1, -1, -1, -1, 1, 1, 1, 1, 1, 1, 1, 1, -1, 1, -1, -1, -1, -1, -1, 1, -1, 1, -1, 1, 1, 1, -1, -1, -1, -1, 1, 1, 1, -1, 1, 1, 1, -1, 1, -1, -1, -1, 1, -1, -1, 1, 1, 1, -1, 1, -1, -1, -1, 1, -1, -1, -1, 1, 1, -1, 1, -1, 1, -1, 1, 1, -1, -1, -1, -1, 1, 1, 1, 1, -1, 1, 1, -1, 1, -1, 1, -1, -1, 1, 1, 1, 1, -1, 1, 1, -1, 1, -1, -1, 1, 1, -1, 1, 1, 1, -1, 1, 1, 1, 1, 1, 1, -1, -1, 1, -1, 1, -1, -1, 1, 1, 1, -1, -1, 1, -1, 1, -1, 1, 1, 1, -1, -1, 1, 1, 1, 1, -1, -1, -1, -1, 1, 1, 1, -1, -1, 1, -1, 1, -1, 1, -1, 1, -1, 1, 1, 1, -1, 1, 1, 1, 1, 1, -1, 1, -1, -1, 1, 1, 1, -1, 1, 1, 1, 1, 1, -1, 1, -1, -1, 1, 1, -1, -1, 1, 1, 1, 1, 1, 1, -1, 1, 1, 1, -1, -1, 1, 1, 1, 1, 1, 1, -1, 1, 1, 1, 1, -1, -1, 1, 1, 1, 1, -1, 1, 1, 1, -1, 1, 1, -1, -1, 1, 1, 1, 1, 1, -1, -1, 1, 1, 1, 1, -1, -1, -1, 1, 1, 1, 1, 1, -1, 1, -1, 1, 1, -1, -1, 1, 1, 1, 1, -1, 1, -1, 1, -1, 1, 1, -1, -1, 1, 1, 1, 1, -1, 1, -1, 1, -1, 1, 1, -1, 1, -1, 1, 1, -1, 1, -1, -1, -1, 1, 1, 1, 1, -1, -1, 1, 1, 1, -1, 1, -1, 1, -1, 1, 1, 1, -1, -1, 1, -1, 1, -1, 1, 1, -1, -1, 1, 1, -1, 1, 1, 1, 1, -1, 1, 1, 1, -1, -1, 1, 1, 1, 1, 1, -1, 1, 1, -1, 1, -1, -1, 1, 1, 1, -1, 1, -1, 1, 1, -1, -1, -1, -1, 1, 1, -1, 1, -1, 1, 1, 1, 1, -1, -1, 1, -1, -1, 1, 1, 1, -1, 1, -1, 1, 1, 1, -1, 1, -1, 1, -1, 1, 1, -1, 1, 1, -1, 1, 1, -1, 1, -1, 1, 1, 1, 1, -1, 1, 1, 1, 1, 1, -1, -1, -1, 1, -1, 1, 1, 1, 1, 1, 1, -1, 1, -1, -1, -1, -1, 1, 1, 1, -1, 1, 1, 1, -1, 1, -1, 1, -1, -1, 1, 1, 1, -1, 1, 1, 1, 1, 1, -1, 1, -1, -1, 1, 1, 1, -1, 1, 1, 1, 1, 1, 1, -1, 1, -1, 1, 1, -1, 1, 1, 1, 1, 1, 1, 1, -1, -1, -1, 1, 1, 1, 1, 1, -1, 1, 1, 1, 1, -1, -1, -1, 1, 1, 1, 1, -1, 1, 1, 1, -1, 1, 1, -1, -1, 1, -1, 1, 1, 1, -1, 1, -1, -1, 1, 1, -1, 1, 1, -1, 1, 1, 1, 1, -1, 1, 1, 1, -1, -1, -1, 1, 1, 1, 1, 1, -1, 1, -1, -1, 1, 1, -1, 1, 1, -1, 1, 1, 1, -1, 1, 1, -1, 1, -1, 1, -1, 1, 1, 1, 1, -1, 1, -1, -1, 1, -1, -1, -1, 1, 1, 1, 1, 1, -1, 1, 1, -1, 1, 1, 1, -1, 1, 1, 1, 1, 1, 1, 1, 1, -1, 1, -1, 1, -1, 1, 1, 1, 1, 1, 1, 1, 1, -1, 1, -1, 1, -1, 1, 1, -1, 1, 1, 1, 1, 1, 1, 1, -1, 1, -1, -1, 1, 1, 1, 1, -1, 1, 1, -1, -1, 1, 1, -1, -1, 1, 1, 1, 1, -1, 1, 1, -1, -1, 1, 1, -1, -1, 1, 1, 1, -1, 1, 1, 1, 1, -1, 1, 1, -1, 1, 1, 1, 1, -1, 1, 1, 1, 1, 1, 1, 1, -1, 1, 1, 1, -1, 1, 1, 1, 1, 1, 1, 1, 1, -1, -1, 1, 1, -1, -1, 1, 1, -1, 1, -1, -1, 1, -1, 1, 1, 1, 1, -1, 1, 1, 1, 1, 1, 1, 1, -1, -1, 1, 1, 1, -1, -1, 1, -1, 1, 1, -1, 1, 1, -1, 1, 1, 1, -1, -1, 1, -1, 1, 1, 1, 1, 1, -1, 1, 1, 1, -1, -1, 1, 1, 1, 1, 1, 1, -1, -1, 1, 1, -1, 1, -1, 1, -1, 1, 1, 1, 1, 1, -1, 1, 1, 1, 1, -1, -1, 1, -1, 1, 1, 1, 1, -1, 1, 1, 1, -1, -1, 1, -1, 1, 1, 1, 1, 1, -1, 1, 1, -1, -1, -1, -1, 1, -1, 1, 1, -1, 1, -1, -1, 1, 1, -1, 1, -1, 1, -1, -1, 1, 1, -1, 1, 1, 1, -1, -1, -1, 1, -1, 1, 1, 1, 1, -1, 1, 1, 1, -1, -1, -1, 1, 1, -1, 1, 1, 1, -1, -1, 1, 1, -1, -1, 1, 1, -1, -1, 1, 1, -1, -1, 1, 1, -1, -1, -1, 1, -1, -1, 1, 1, 1, -1, -1, 1, 1, -1, -1, -1, -1, 1, -1, -1, 1, 1, -1, 1, 1, -1, 1, -1, 1, 1, 1, 1, 1, 1, 1, -1, 1, 1, -1, 1, -1, 1, -1, 1, 1, -1, 1, 1, -1, 1, 1, 1, 1, -1, 1, -1, 1, -1, -1, -1, 1, -1, -1, 1, -1, -1, -1, -1, 1, 1, 1, -1, -1, 1, -1, 1, 1, 1, -1, 1, -1, 1, 1, 1, -1, -1, 1, -1, -1, -1, 1, 1, -1, -1, 1, -1, 1, 1, 1, 1, -1, -1, -1, 1, -1, 1, -1, 1, -1, 1, -1, 1, 1, -1, 1, 1, -1, -1, -1, 1, -1, 1, 1, -1, 1, -1, 1, 1, -1, 1, -1, -1, 1, 1, 1, 1, -1, 1, -1, -1, 1, -1, 1, -1, 1, 1, -1, 1, -1, -1, 1, 1, -1, 1, -1, 1, -1, 1, -1, -1, 1, -1, -1, -1, 1, -1, 1, -1, -1, 1, -1, 1, 1, 1, -1, 1, 1, 1, -1, -1, -1, 1, -1, -1, 1, 1, -1, 1, -1, 1, 1, 1, -1, -1, 1, 1, -1, 1, -1, 1, -1, -1, -1, 1, -1, -1, -1, -1, 1, -1, 1, -1, 1, -1, -1, 1, -1, -1, -1, 1, 1, -1, 1, -1, 1, -1, -1, -1, 1, -1, -1, -1, -1, 1, -1, 1, 1, -1, 1, -1, 1, 1, -1, -1, -1, -1, 1, -1, 1, 1, -1, -1, -1, 1, 1, -1, -1, -1, -1, 1, -1, 1, 1, 1, -1, -1, 1, 1, -1, -1, -1, 1, 1, -1, 1, 1, -1, -1, -1, 1, -1, -1, -1, -1, 1, -1, -1, 1, -1, 1, -1, -1, 1, 1, 1, -1, -1, 1, -1, -1, 1, -1, -1, -1, -1, 1, -1, -1, -1, -1, 1, -1, -1, 1, -1, 1, -1, -1, 1, 1, -1, 1, -1, 1, 1, -1, 1, 1, -1, -1, -1, 1, 1, -1, -1, 1, -1, 1, -1, 1, 1, -1, -1, -1, -1, 1, -1, -1, -1, -1, 1, -1, -1, 1, -1, 1, -1, 1, -1, -1, -1, -1, -1, 1, -1, -1, 1, -1, -1, -1, 1, 1, 1, -1, -1, -1, 1, -1, -1, 1, -1, -1, -1, -1, 1, -1, 1, -1, -1, 1, -1, -1, 1, -1, -1, 1, -1, 1, 1, -1, -1, -1, 1, -1, -1, -1, -1, -1, 1, -1, 1, -1, -1, -1, 1, 1, -1, -1, 1, -1, -1, -1, 1, -1, 1, -1, -1, 1, -1, -1, 1, -1, -1, -1, -1, 1, -1, -1, -1, -1, 1, 1, -1, 1, -1, -1, -1, -1, -1, -1, 1, -1, -1, 1, -1, -1, -1, 1, -1, -1, -1, -1, -1, 1, -1, -1, -1, 1, -1, -1, 1, -1, -1, 1, -1, -1, 1, 1, -1, 1, 1, -1, -1, 1, -1, -1, 1, 1, -1, 1, -1, -1, -1, 1, -1, -1, 1, 1, -1, -1, 1, -1, 1, -1, -1, -1, -1, -1, 1, 1, -1, -1, -1, -1, 1, 1, -1, 1, -1, 1, -1, -1, 1, -1, -1, -1, 1, -1, 1, 1, -1, -1, -1, -1, -1, -1, -1, -1, 1, 1, -1, -1, 1, 1, -1, 1, -1, -1, 1, -1, -1, -1, 1, -1, -1, 1, -1, -1, -1, -1, -1, -1, -1, -1, 1, -1, 1, -1, 1, -1, 1, -1, -1, -1, -1, 1, 1, -1, 1, 1, 1, -1, 1, -1, -1, -1, -1, -1, -1, -1, -1, 1, 1, -1, 1, 1, -1, -1, -1, 1, -1, 1, 1, 1, -1, -1, 1, -1, -1, -1, -1, -1, -1, 1, -1, -1, 1, 1, -1, 1, 1, -1, -1, -1, -1, -1, 1, 1, 1, 1, 1, 1, -1, 1, -1, 1, -1, -1, -1, -1, 1, 1, 1, 1, -1, -1, 1, 1, -1, -1, -1, -1, -1, 1, 1, 1, 1, 1, 1, 1, 1, 1, -1, -1, -1, 1, 1, -1, 1, 1, 1, 1, 1, -1, 1, -1, -1, -1, -1, 1, -1, 1, 1, -1, 1, 1, 1, 1, 1, -1, -1, -1, 1, -1, 1, 1, -1, 1, 1, 1, -1, -1, 1, -1, -1, 1, 1, 1, 1, -1, 1, 1, 1, -1, 1, -1, -1, 1, 1, -1, 1, 1, -1, 1, 1, 1, 1, 1, -1, -1, 1, 1, 1, 1, 1, -1, 1, 1, -1, 1, 1, -1, -1, 1, 1, -1, 1, -1, 1, 1, 1, -1, 1, -1, -1, -1, 1, 1, -1, -1, -1, 1, 1, 1, 1, 1, -1, -1, 1, 1, -1, 1, 1, -1, 1, 1, 1, 1, 1, -1, 1, -1, 1, -1, -1, 1, -1, 1, 1, 1, 1, 1, 1, -1, -1, 1, 1, -1, 1, -1, -1, 1, 1, 1, 1, 1, -1, -1, 1, 1, -1, 1, -1, -1, -1, 1, 1, 1, -1, -1, -1, 1, 1, -1, 1, 1, -1, 1, 1, 1, 1, 1, -1, -1, 1, 1, -1, 1, 1, -1, 1, -1, 1, 1, -1, 1, -1, 1, 1, -1, 1, 1, -1, 1, -1, 1, -1, 1, -1, -1, 1, 1, -1, -1, 1, -1, -1, 1, 1, -1, -1, 1, -1, 1, 1, -1, -1, 1, -1, 1, 1, 1, 1, 1, 1, -1, -1, 1, -1, 1, -1, 1, -1, 1, 1, -1, 1, -1, -1, 1, -1, 1, -1, -1, 1, 1, 1, 1, -1, 1, -1, 1, 1, -1, 1, -1, 1, -1, -1, 1, 1, -1, 1, 1, -1, -1, 1, -1, -1, 1, -1, 1, 1, 1, -1, 1, -1, -1, -1, 1, -1, -1, 1, -1, -1, 1, 1, -1, -1, 1, -1, -1, 1, -1, -1, 1, 1, -1, -1, 1, -1, -1, 1, -1, 1, 1, 1, -1, 1, 1, 1, 1, 1, 1, 1, -1, -1, -1, 1, -1, -1, 1, 1, 1, -1, 1, -1, -1, 1, -1, -1, -1, -1, -1, -1, 1, -1, 1, 1, 1, -1, 1, 1, -1, -1, 1, -1, 1, 1, -1, -1, 1, 1, -1, 1, 1, -1, 1, -1, -1, -1, 1, -1, -1, 1, -1, -1, -1, 1, -1, -1, -1, -1, 1, 1, -1, -1, 1, -1, -1, 1, -1, -1, -1, 1, 1, 1, -1, -1, 1, 1, -1, -1, 1, -1, -1, -1, 1, 1, 1, -1, -1, 1, 1, -1, 1, -1, 1, -1, 1, -1, 1, 1, 1, -1, 1, -1, -1, -1, 1, 1, -1, 1, -1, -1, 1, -1, -1, 1, 1, -1, -1, 1, -1, -1, -1, 1, -1, 1, 1, 1, -1, 1, -1, 1, -1, 1, -1, -1, -1, -1, 1, 1, -1, -1, -1, -1, -1, 1, 1, -1, -1, -1, -1, 1, 1, -1, 1, -1, 1, -1, -1, 1, -1, -1, -1, -1, 1, -1, -1, -1, -1, -1, 1, -1, 1, -1, 1, -1, -1, 1, 1, 1, -1, 1, -1, 1, -1, 1, -1, -1, -1, -1, 1, 1, 1, -1, 1, -1, -1, -1, 1, 1, -1, 1, 1, -1, 1, 1, 1, -1, 1, 1, -1, 1, 1, -1, -1, 1, 1, 1, 1, -1, 1, -1, -1, 1, 1, 1, -1, 1, 1, 1, 1, 1, 1, -1, -1, -1, 1, 1, -1, 1, -1, 1, 1, 1, 1, 1, -1, -1, 1, 1, 1, -1, -1, -1, -1, 1, 1, -1, 1, 1, -1, -1, 1, 1, -1, 1, -1, 1, 1, 1, -1, -1, 1, -1, -1, -1, 1, -1, -1, -1, 1, 1, 1, -1, 1, -1, 1, -1, 1, -1, -1, -1, 1, 1, 1, 1, -1, 1, -1, 1, -1, -1, 1, -1, -1, -1, 1, -1, 1, 1, -1, -1, -1, -1, -1, -1, 1, 1, -1, 1, -1, 1, 1, -1, 1, 1, 1, -1, 1, -1, -1, -1, 1, 1, 1, 1, -1, -1, 1, -1, -1, 1, -1, -1, -1, 1, -1, 1, 1, 1, 1, -1, -1, 1, 1, -1, -1, -1, 1, 1, 1, 1, -1, 1, -1, -1, -1, 1, -1, -1, -1, 1, 1, 1, 1, 1, 1, 1, -1, -1, 1, -1, -1, -1, 1, 1, 1, -1, 1, 1, -1, 1, -1, -1, -1, -1, 1, 1, 1, 1, 1, -1, -1, -1, 1, 1, -1, -1, -1, 1, 1, 1, 1, 1, 1, -1, 1, -1, -1, -1, -1, 1, -1, 1, -1, 1, -1, 1, 1, 1, -1, -1, 1, -1, -1, 1, 1, -1, 1, 1, -1, 1, -1, 1, -1, 1, -1, 1, -1, 1, 1, 1, -1, -1, 1, -1, 1, -1, 1, -1, -1, -1, 1, -1, -1, 1, 1, -1, 1, -1, -1, 1, -1, 1, -1, 1, 1, -1, 1, 1, 1, 1, -1, -1, 1, -1, 1, -1, -1, 1, 1, 1, -1, 1, 1, -1, 1, 1, 1, -1, 1, 1, -1, 1, 1, 1, -1, 1, -1, 1, 1, -1, -1, 1, 1, -1, 1, 1, 1, -1, -1, -1, 1, 1, -1, 1, -1, 1, -1, 1, -1, 1, 1, 1, -1, -1, 1, -1, -1, 1, -1, 1, -1, 1, -1, 1, -1, 1, 1, -1, 1, -1, 1, 1, -1, 1, 1, 1, 1, -1, 1, 1, 1, 1, 1, -1, -1, -1, 1, 1, 1, 1, -1, 1, 1, -1, 1, -1, 1, -1, 1, -1, 1, -1, 1, -1, 1, 1, 1, 1, -1, 1, -1, -1, 1, 1, -1, 1, -1, -1, 1, -1, 1, 1, 1, -1, 1, 1, -1, -1, 1, -1, 1, -1, 1, 1, 1, 1, -1, 1, -1, 1, 1, 1, -1, 1, 1, 1, 1, 1, -1, -1, 1, -1, 1, 1, -1, 1, 1, -1, 1, 1, 1, -1, -1, 1, -1, -1, 1, 1, -1, 1, 1, -1, 1, 1, -1, -1, 1, 1, -1, 1, -1, -1, 1, 1, 1, 1, -1, 1, -1, 1, -1, 1, -1, 1, -1, 1, 1, -1, 1, 1, 1, 1, -1, 1, -1, 1, 1, -1, 1, -1, 1, 1
BQP_DATA, 4046, 18819, -9126.000000, -11358.000000, -25604.000000, -27836.000000, 8192.002217, 9993, 2227
